Timesteps: 1
s UNSATISFIABLE
real 0.13
user 0.00
sys 0.00
Timesteps: 2
s UNSATISFIABLE
real 0.17
user 0.02
sys 0.00
Timesteps: 3
s UNSATISFIABLE
real 0.13
user 0.03
sys 0.00
Timesteps: 4
s UNSATISFIABLE
real 0.18
user 0.06
sys 0.00
Timesteps: 5
s UNSATISFIABLE
real 0.20
user 0.13
sys 0.00
Timesteps: 6
s UNSATISFIABLE
real 0.44
user 0.38
sys 0.00
Timesteps: 7
s UNSATISFIABLE
real 1.26
user 1.17
sys 0.01
Timesteps: 8
s UNSATISFIABLE
real 1.54
user 1.45
sys 0.00
Timesteps: 9
s UNSATISFIABLE
real 2.93
user 2.82
sys 0.01
Timesteps: 10
s UNSATISFIABLE
real 3.92
user 3.79
sys 0.02
Timesteps: 11
s UNSATISFIABLE
real 8.02
user 7.86
sys 0.01
Timesteps: 12
s UNSATISFIABLE
real 8.05
user 7.87
sys 0.02
Timesteps: 13
s UNSATISFIABLE
real 7.83
user 7.65
sys 0.01
Timesteps: 14
s UNSATISFIABLE
real 9.14
user 8.94
sys 0.01
Timesteps: 15
s UNSATISFIABLE
real 8.23
user 8.04
sys 0.02
Timesteps: 16
s UNSATISFIABLE
real 8.86
user 8.62
sys 0.02
Timesteps: 17
s UNSATISFIABLE
real 9.24
user 9.00
sys 0.03
Timesteps: 18
s UNSATISFIABLE
real 10.24
user 9.98
sys 0.04
Timesteps: 19
s UNSATISFIABLE
real 16.90
user 16.61
sys 0.04
Timesteps: 20
s UNSATISFIABLE
real 11.68
user 11.39
sys 0.05
Timesteps: 21
s UNSATISFIABLE
real 14.47
user 14.15
sys 0.05
Timesteps: 22
s UNSATISFIABLE
real 18.17
user 17.83
sys 0.07
Timesteps: 23
s UNSATISFIABLE
real 22.47
user 22.09
sys 0.06
Timesteps: 24
s UNSATISFIABLE
real 22.69
user 22.29
sys 0.07
Timesteps: 25
s UNSATISFIABLE
real 23.62
user 23.05
sys 0.08
Timesteps: 26
s UNSATISFIABLE
real 26.51
user 26.10
sys 0.07
Timesteps: 27
s UNSATISFIABLE
real 28.32
user 27.89
sys 0.06
Timesteps: 28
s UNSATISFIABLE
real 35.99
user 35.51
sys 0.09
Timesteps: 29
s UNSATISFIABLE
real 45.66
user 45.13
sys 0.08
Timesteps: 30
s UNSATISFIABLE
real 45.50
user 44.94
sys 0.10
Timesteps: 31
s UNSATISFIABLE
real 55.89
user 55.25
sys 0.12
Timesteps: 32
s UNSATISFIABLE
real 78.43
user 77.67
sys 0.14
Timesteps: 33
s UNSATISFIABLE
real 80.75
user 79.98
sys 0.15
Timesteps: 34
s UNSATISFIABLE
real 81.80
user 81.00
sys 0.15
Timesteps: 35
s UNSATISFIABLE
real 155.42
user 153.62
sys 0.23
Timesteps: 36
s UNSATISFIABLE
real 132.78
user 131.06
sys 0.23
Timesteps: 37
s UNSATISFIABLE
real 209.07
user 206.93
sys 0.31
Timesteps: 38
s UNSATISFIABLE
real 162.00
user 160.27
sys 0.26
Timesteps: 39
s UNSATISFIABLE
real 253.59
user 251.18
sys 0.33
Timesteps: 40
s UNSATISFIABLE
real 298.29
user 295.64
sys 0.37
Timesteps: 41
s UNSATISFIABLE
real 338.69
user 335.72
sys 0.44
Timesteps: 42
s UNSATISFIABLE
real 308.96
user 306.04
sys 0.42
Timesteps: 43
s UNSATISFIABLE
real 281.63
user 278.95
sys 0.40
Timesteps: 44
s UNSATISFIABLE
real 204.33
user 202.90
sys 0.31
Timesteps: 45
s UNSATISFIABLE
real 266.33
user 264.55
sys 0.42
Timesteps: 46
